# ../../testbench/TB-Optimal/4TPE/GS7_12/NoSAvg/EL_Avg/HNodeHEdge/uh0304066601.stg
          7          4
          0         15          0
          1         14          0
          2         16          1
                     1         14
          3         14          1
                     1         12
          4         11          4
                     0         15
                     1         14
                     2         18
                     3         14
          5          7          3
                     0         16
                     1         17
                     3         14
          6         14          2
                     4         16
                     5         14
# Generated by TaskGraphGenerator-1-2-0
# Parameters: uh030406 6601 25 ../GS7_12/NoSAvg/EL_Avg/HNodeHEdge/ 68350 u 7 12 u 4 4 g 50.000000 25.000000 g 50.000000 25.000000 g 15.000000 3.000000 g 15.000000 3.000000
